
Log started (V12.8.0.0) Thu Aug 30 12:38:50 2018

New value for time limit in seconds: 500
CPXPARAM_TimeLimit                               500
CPXPARAM_Emphasis_Numerical                      1
CPXPARAM_Parallel                                -1
CPXPARAM_Benders_Strategy                        3
CPXPARAM_MIP_Tolerances_Integrality              9.9999999999999995e-08
CPXPARAM_MIP_Pool_AbsGap                         0
Tried aggregator 4 times.
MIP Presolve eliminated 8254 rows and 3782 columns.
Aggregator did 1223 substitutions.
Reduced MIP has 2399 rows, 2463 columns, and 8920 nonzeros.
Reduced MIP has 25 binaries, 0 generals, 0 SOSs, and 0 indicators.
Presolve time = 0.01 sec. (15.09 ticks)
Found incumbent of value -6.000000 after 0.02 sec. (23.78 ticks)
Tried aggregator 1 time.
Reduced MIP has 2399 rows, 2463 columns, and 8920 nonzeros.
Reduced MIP has 25 binaries, 0 generals, 0 SOSs, and 0 indicators.
Presolve time = 0.00 sec. (2.46 ticks)

        Nodes                                         Cuts/
   Node  Left     Objective  IInf  Best Integer    Best Bound    ItCnt     Gap

      0     0        0.0000                       Benders: 10        0         
      0     0        0.0000                        Benders: 3        2         
      0     0        0.0000                        Benders: 1        4         
      0     0        0.0000                        Benders: 1        5         
      0     0        0.0000                            0.0000        8         
Tried aggregator 1 time.
MIP Presolve modified 192 coefficients.
Reduced MIP has 16 rows, 35 columns, and 136 nonzeros.
Reduced MIP has 25 binaries, 0 generals, 0 SOSs, and 0 indicators.
Presolve time = 0.00 sec. (0.03 ticks)
Probing time = 0.00 sec. (0.01 ticks)
Tried aggregator 1 time.
Reduced MIP has 16 rows, 35 columns, and 136 nonzeros.
Reduced MIP has 25 binaries, 0 generals, 0 SOSs, and 0 indicators.
Presolve time = 0.00 sec. (0.03 ticks)
Probing time = 0.00 sec. (0.01 ticks)
MIP emphasis: balance optimality and feasibility.
MIP search method: dynamic search.
Parallel mode: opportunistic, using up to 8 threads.
Root relaxation solution time = 0.00 sec. (0.04 ticks)
*     0+    0                           -6.0000       -0.0000           100.00%
      0     0        0.0000     4       -6.0000       -0.0000       28  100.00%
*     0+    0                           -5.5000       -0.0000           100.00%

Repeating presolve.
Tried aggregator 1 time.
Reduced MIP has 16 rows, 35 columns, and 136 nonzeros.
Reduced MIP has 25 binaries, 0 generals, 0 SOSs, and 0 indicators.
Presolve time = 0.00 sec. (0.03 ticks)
Probing time = 0.00 sec. (0.01 ticks)
Tried aggregator 1 time.
Reduced MIP has 16 rows, 35 columns, and 136 nonzeros.
Reduced MIP has 25 binaries, 0 generals, 0 SOSs, and 0 indicators.
Presolve time = 0.00 sec. (0.03 ticks)
Represolve time = 0.00 sec. (0.49 ticks)
Probing time = 0.00 sec. (0.01 ticks)
MIP emphasis: balance optimality and feasibility.
MIP search method: dynamic search.
Parallel mode: opportunistic, using up to 8 threads.
Root relaxation solution time = 0.00 sec. (0.21 ticks)
*     0+    0                           -5.5000       -0.0000           100.00%
      0     0        0.0000     6       -5.5000       -0.0000       67  100.00%
      0     0        0.0000     7       -5.5000       Cuts: 3       69  100.00%
      0     0        0.0000     8       -5.5000      Fract: 2       76  100.00%
      0     2        0.0000     8       -5.5000       Cuts: 8       76  100.00%
Elapsed time = 0.29 sec. (254.26 ticks, tree = 0.01 MB, solutions = 1)
*   365+   66                           -4.4333       -2.4000            45.86%
*   614+   16                           -3.7228       -3.0860            17.10%

Benders cuts applied:  364
Gomory fractional cuts applied:  1

Root node processing (before b&c):
  Real time             =    0.28 sec. (253.89 ticks)
Parallel b&c, 8 threads:
  Real time             =    0.33 sec. (189.20 ticks)
  Sync time (average)   =    0.04 sec.
  Wait time (average)   =    0.00 sec.
                          ------------
Total (root+branch&cut) =    0.61 sec. (443.09 ticks)

Solution pool: 1 solution saved.

MIP - Integer optimal solution:  Objective = -3.7228017531e+00
Solution time =    0.62 sec.  Iterations = 3727  Nodes = 746 (1)
Deterministic time = 443.67 ticks  (719.85 ticks/sec)


Solution pool written to file 'ngp_a5_b0_n2.sol'.
Current MIP best bound = -3.7228017531e+00 (gap = -0, 0.00%)
